(declare-fun var0 () String)
(assert (RegexIn var0 (RegexConcat (RegexUnion (RegexUnion (Str2Reg "?") (Str2Reg "@@")) (RegexStar (Str2Reg "[[["))) (RegexConcat (RegexStar (RegexUnion (Str2Reg "==") (Str2Reg ">"))) (RegexConcat (RegexPlus (RegexStar (Str2Reg "<"))) (RegexConcat (RegexUnion (RegexPlus (Str2Reg "//")) (RegexUnion (Str2Reg "::") (Str2Reg ";;;"))) (RegexConcat (RegexPlus (RegexUnion (Str2Reg "---") (Str2Reg "..."))) (RegexConcat (RegexUnion (RegexPlus (Str2Reg "*")) (RegexUnion (Str2Reg "+") (Str2Reg ","))) (RegexConcat (RegexPlus (RegexUnion (Str2Reg "((") (Str2Reg "))"))) (RegexConcat (RegexPlus (RegexUnion (Str2Reg "&&&") (Str2Reg "''"))) (RegexConcat (RegexStar (RegexUnion (Str2Reg "$$") (Str2Reg "%%%"))) (RegexConcat (RegexUnion (RegexPlus (Str2Reg "\"\"")) (RegexStar (Str2Reg "###"))) (RegexConcat (RegexPlus (RegexUnion (Str2Reg "ZZ") (Str2Reg "!"))) (RegexConcat (RegexUnion (RegexStar (Str2Reg "XXX")) (RegexPlus (Str2Reg "YYY"))) (RegexConcat (RegexPlus (RegexPlus (Str2Reg "W"))) (RegexConcat (RegexPlus (RegexPlus (Str2Reg "VVV"))) (RegexConcat (RegexPlus (RegexPlus (Str2Reg "UU"))) (RegexConcat (RegexStar (RegexPlus (Str2Reg "T"))) (RegexConcat (RegexStar (RegexStar (Str2Reg "SSS"))) (RegexConcat (RegexUnion (RegexPlus (Str2Reg "QQ")) (RegexPlus (Str2Reg "RR"))) (RegexConcat (RegexPlus (RegexPlus (Str2Reg "PP"))) (RegexConcat (RegexUnion (RegexPlus (Str2Reg "MM")) (RegexUnion (Str2Reg "NN") (Str2Reg "OO"))) (RegexConcat (RegexStar (RegexStar (Str2Reg "L"))) (RegexConcat (RegexUnion (RegexPlus (Str2Reg "JJJ")) (RegexStar (Str2Reg "K"))) (RegexConcat (RegexUnion (RegexStar (Str2Reg "G")) (RegexUnion (Str2Reg "HHH") (Str2Reg "I"))) (RegexConcat (RegexPlus (RegexStar (Str2Reg "FFF"))) (RegexConcat (RegexStar (RegexStar (Str2Reg "EEE"))) (RegexConcat (RegexUnion (RegexUnion (Str2Reg "A") (Str2Reg "B")) (RegexUnion (Str2Reg "C") (Str2Reg "D"))) (RegexConcat (RegexUnion (RegexPlus (Str2Reg "x")) (RegexUnion (Str2Reg "y") (Str2Reg "zzz"))) (RegexConcat (RegexStar (RegexPlus (Str2Reg "www"))) (RegexConcat (RegexUnion (RegexPlus (Str2Reg "uuu")) (RegexPlus (Str2Reg "v"))) (RegexConcat (RegexStar (RegexStar (Str2Reg "t"))) (RegexConcat (RegexUnion (RegexStar (Str2Reg "rr")) (RegexPlus (Str2Reg "ss"))) (RegexConcat (RegexPlus (RegexUnion (Str2Reg "pp") (Str2Reg "qqq"))) (RegexConcat (RegexStar (RegexUnion (Str2Reg "nnn") (Str2Reg "o"))) (RegexConcat (RegexStar (RegexUnion (Str2Reg "l") (Str2Reg "m"))) (RegexConcat (RegexUnion (RegexStar (Str2Reg "jjj")) (RegexStar (Str2Reg "k"))) (RegexConcat (RegexStar (RegexPlus (Str2Reg "i"))) (RegexConcat (RegexPlus (RegexUnion (Str2Reg "g") (Str2Reg "hhh"))) (RegexConcat (RegexPlus (RegexPlus (Str2Reg "f"))) (RegexConcat (RegexPlus (RegexStar (Str2Reg "e"))) (RegexConcat (RegexUnion (RegexUnion (Str2Reg "aa") (Str2Reg "bb")) (RegexUnion (Str2Reg "cc") (Str2Reg "d"))) (RegexConcat (RegexPlus (RegexPlus (Str2Reg "999"))) (RegexConcat (RegexStar (RegexUnion (Str2Reg "777") (Str2Reg "888"))) (RegexConcat (RegexUnion (RegexStar (Str2Reg "55")) (RegexStar (Str2Reg "66"))) (RegexConcat (RegexUnion (RegexPlus (Str2Reg "333")) (RegexPlus (Str2Reg "44"))) (RegexConcat (RegexUnion (RegexPlus (Str2Reg "0")) (RegexUnion (Str2Reg "1") (Str2Reg "2"))) (RegexConcat (RegexUnion (RegexPlus (Str2Reg "|")) (RegexUnion (Str2Reg "}}}") (Str2Reg "~"))) (RegexConcat (RegexPlus (RegexStar (Str2Reg "{{{"))) (RegexConcat (RegexStar (RegexPlus (Str2Reg "``"))) (RegexConcat (RegexUnion (RegexUnion (Str2Reg "\\\\") (Str2Reg "]]")) (RegexUnion (Str2Reg "^^") (Str2Reg "__"))) (RegexConcat (RegexPlus (RegexPlus (Str2Reg "[["))) (RegexConcat (RegexUnion (RegexStar (Str2Reg "?")) (RegexPlus (Str2Reg "@"))) (RegexConcat (RegexUnion (RegexUnion (Str2Reg "<") (Str2Reg "=")) (RegexStar (Str2Reg ">"))) (RegexConcat (RegexUnion (RegexStar (Str2Reg ":::")) (RegexStar (Str2Reg ";"))) (RegexConcat (RegexStar (RegexPlus (Str2Reg "/"))) (RegexConcat (RegexStar (RegexStar (Str2Reg "..."))) (RegexConcat (RegexStar (RegexStar (Str2Reg "-"))) (RegexConcat (RegexStar (RegexUnion (Str2Reg "+++") (Str2Reg ",,,"))) (RegexConcat (RegexUnion (RegexPlus (Str2Reg ")")) (RegexStar (Str2Reg "*"))) (RegexConcat (RegexStar (RegexPlus (Str2Reg "("))) (RegexConcat (RegexStar (RegexPlus (Str2Reg "''"))) (RegexConcat (RegexUnion (RegexPlus (Str2Reg "$")) (RegexUnion (Str2Reg "%%%") (Str2Reg "&&&"))) (RegexConcat (RegexStar (RegexUnion (Str2Reg "\"\"\"") (Str2Reg "###"))) (RegexConcat (RegexStar (RegexPlus (Str2Reg "!!!"))) (RegexConcat (RegexPlus (RegexPlus (Str2Reg "ZZZ"))) (RegexConcat (RegexStar (RegexStar (Str2Reg "Y"))) (RegexConcat (RegexPlus (RegexPlus (Str2Reg "X"))) (RegexConcat (RegexStar (RegexUnion (Str2Reg "V") (Str2Reg "WW"))) (RegexConcat (RegexUnion (RegexPlus (Str2Reg "T")) (RegexStar (Str2Reg "U"))) (RegexConcat (RegexStar (RegexUnion (Str2Reg "RR") (Str2Reg "SSS"))) (RegexConcat (RegexStar (RegexPlus (Str2Reg "QQQ"))) (RegexConcat (RegexStar (RegexStar (Str2Reg "PPP"))) (RegexConcat (RegexStar (RegexUnion (Str2Reg "NNN") (Str2Reg "O"))) (RegexConcat (RegexUnion (RegexUnion (Str2Reg "JJJ") (Str2Reg "K")) (RegexUnion (Str2Reg "L") (Str2Reg "M"))) (RegexConcat (RegexPlus (RegexStar (Str2Reg "I"))) (RegexConcat (RegexPlus (RegexStar (Str2Reg "HHH"))) (RegexConcat (RegexPlus (RegexUnion (Str2Reg "F") (Str2Reg "GGG"))) (RegexConcat (RegexUnion (RegexPlus (Str2Reg "DDD")) (RegexPlus (Str2Reg "EEE"))) (RegexConcat (RegexPlus (RegexUnion (Str2Reg "BB") (Str2Reg "CC"))) (RegexConcat (RegexPlus (RegexPlus (Str2Reg "AA"))) (RegexConcat (RegexPlus (RegexPlus (Str2Reg "zz"))) (RegexConcat (RegexUnion (RegexStar (Str2Reg "x")) (RegexPlus (Str2Reg "y"))) (RegexConcat (RegexUnion (RegexUnion (Str2Reg "t") (Str2Reg "uu")) (RegexUnion (Str2Reg "v") (Str2Reg "w"))) (RegexConcat (RegexUnion (RegexUnion (Str2Reg "qq") (Str2Reg "rrr")) (RegexStar (Str2Reg "s"))) (RegexConcat (RegexPlus (RegexUnion (Str2Reg "ooo") (Str2Reg "p"))) (RegexConcat (RegexStar (RegexStar (Str2Reg "nn"))) (RegexConcat (RegexUnion (RegexUnion (Str2Reg "kk") (Str2Reg "ll")) (RegexPlus (Str2Reg "m"))) (RegexConcat (RegexUnion (RegexUnion (Str2Reg "hh") (Str2Reg "iii")) (RegexStar (Str2Reg "j"))) (RegexConcat (RegexStar (RegexPlus (Str2Reg "g"))) (RegexConcat (RegexUnion (RegexStar (Str2Reg "eee")) (RegexPlus (Str2Reg "fff"))) (RegexConcat (RegexStar (RegexPlus (Str2Reg "d"))) (RegexConcat (RegexStar (RegexStar (Str2Reg "ccc"))) (RegexConcat (RegexUnion (RegexPlus (Str2Reg "aa")) (RegexPlus (Str2Reg "bbb"))) (RegexConcat (RegexStar (RegexUnion (Str2Reg "888") (Str2Reg "999"))) (RegexConcat (RegexUnion (RegexPlus (Str2Reg "5")) (RegexUnion (Str2Reg "6") (Str2Reg "77"))) (RegexConcat (RegexUnion (RegexStar (Str2Reg "2")) (RegexUnion (Str2Reg "3") (Str2Reg "444"))) (RegexStar (RegexUnion (Str2Reg "0") (Str2Reg "1"))))))))))))))))))))))))))))))))))))))))))))))))))))))))))))))))))))))))))))))))))))))))))))))))))))
(assert (not (RegexIn var0 (RegexConcat (RegexStar (RegexPlus (Str2Reg ";;"))) (RegexConcat (RegexStar (RegexStar (Str2Reg "::"))) (RegexConcat (RegexStar (RegexStar (Str2Reg "/"))) (RegexConcat (RegexStar (RegexPlus (Str2Reg "..."))) (RegexConcat (RegexUnion (RegexPlus (Str2Reg ",")) (RegexPlus (Str2Reg "---"))) (RegexConcat (RegexPlus (RegexPlus (Str2Reg "++"))) (RegexConcat (RegexStar (RegexUnion (Str2Reg ")))") (Str2Reg "***"))) (RegexConcat (RegexUnion (RegexStar (Str2Reg "'''")) (RegexStar (Str2Reg "((("))) (RegexConcat (RegexPlus (RegexStar (Str2Reg "&&&"))) (RegexConcat (RegexUnion (RegexUnion (Str2Reg "#") (Str2Reg "$$")) (RegexPlus (Str2Reg "%%"))) (RegexConcat (RegexPlus (RegexUnion (Str2Reg "!") (Str2Reg "\"\""))) (RegexConcat (RegexUnion (RegexStar (Str2Reg "X")) (RegexUnion (Str2Reg "YY") (Str2Reg "ZZZ"))) (RegexConcat (RegexUnion (RegexPlus (Str2Reg "UU")) (RegexUnion (Str2Reg "VVV") (Str2Reg "W"))) (RegexConcat (RegexStar (RegexStar (Str2Reg "TTT"))) (RegexConcat (RegexPlus (RegexPlus (Str2Reg "SSS"))) (RegexConcat (RegexUnion (RegexUnion (Str2Reg "O") (Str2Reg "PP")) (RegexUnion (Str2Reg "Q") (Str2Reg "RR"))) (RegexConcat (RegexPlus (RegexStar (Str2Reg "NNN"))) (RegexConcat (RegexStar (RegexPlus (Str2Reg "M"))) (RegexConcat (RegexStar (RegexUnion (Str2Reg "KK") (Str2Reg "LL"))) (RegexConcat (RegexUnion (RegexPlus (Str2Reg "II")) (RegexPlus (Str2Reg "JJJ"))) (RegexConcat (RegexPlus (RegexPlus (Str2Reg "HH"))) (RegexConcat (RegexPlus (RegexUnion (Str2Reg "FFF") (Str2Reg "G"))) (RegexConcat (RegexUnion (RegexPlus (Str2Reg "D")) (RegexPlus (Str2Reg "EE"))) (RegexConcat (RegexUnion (RegexUnion (Str2Reg "zz") (Str2Reg "AA")) (RegexUnion (Str2Reg "BB") (Str2Reg "CC"))) (RegexConcat (RegexStar (RegexUnion (Str2Reg "xx") (Str2Reg "y"))) (RegexConcat (RegexUnion (RegexUnion (Str2Reg "u") (Str2Reg "vvv")) (RegexPlus (Str2Reg "ww"))) (RegexConcat (RegexUnion (RegexPlus (Str2Reg "ss")) (RegexPlus (Str2Reg "ttt"))) (RegexConcat (RegexPlus (RegexStar (Str2Reg "r"))) (RegexConcat (RegexPlus (RegexUnion (Str2Reg "ppp") (Str2Reg "qqq"))) (RegexConcat (RegexPlus (RegexUnion (Str2Reg "n") (Str2Reg "ooo"))) (RegexConcat (RegexStar (RegexStar (Str2Reg "mmm"))) (RegexConcat (RegexStar (RegexStar (Str2Reg "ll"))) (RegexConcat (RegexUnion (RegexStar (Str2Reg "jj")) (RegexStar (Str2Reg "kkk"))) (RegexConcat (RegexStar (RegexStar (Str2Reg "i"))) (RegexConcat (RegexUnion (RegexUnion (Str2Reg "e") (Str2Reg "f")) (RegexUnion (Str2Reg "g") (Str2Reg "h"))) (RegexConcat (RegexStar (RegexPlus (Str2Reg "ddd"))) (RegexConcat (RegexStar (RegexStar (Str2Reg "cc"))) (RegexConcat (RegexPlus (RegexPlus (Str2Reg "bb"))) (RegexConcat (RegexUnion (RegexUnion (Str2Reg "88") (Str2Reg "999")) (RegexPlus (Str2Reg "aa"))) (RegexConcat (RegexStar (RegexPlus (Str2Reg "77"))) (RegexConcat (RegexStar (RegexUnion (Str2Reg "5") (Str2Reg "666"))) (RegexConcat (RegexPlus (RegexPlus (Str2Reg "44"))) (RegexConcat (RegexUnion (RegexPlus (Str2Reg "111")) (RegexUnion (Str2Reg "22") (Str2Reg "333"))) (RegexConcat (RegexPlus (RegexUnion (Str2Reg "~") (Str2Reg "000"))) (RegexConcat (RegexStar (RegexPlus (Str2Reg "}}"))) (RegexConcat (RegexStar (RegexUnion (Str2Reg "{{{") (Str2Reg "|||"))) (RegexConcat (RegexPlus (RegexUnion (Str2Reg "_") (Str2Reg "``"))) (RegexConcat (RegexStar (RegexUnion (Str2Reg "]") (Str2Reg "^^^"))) (RegexConcat (RegexUnion (RegexUnion (Str2Reg "??") (Str2Reg "@")) (RegexUnion (Str2Reg "[") (Str2Reg "\\"))) (RegexConcat (RegexPlus (RegexStar (Str2Reg ">>"))) (RegexConcat (RegexPlus (RegexStar (Str2Reg "==="))) (RegexConcat (RegexUnion (RegexStar (Str2Reg ";;")) (RegexPlus (Str2Reg "<<"))) (RegexConcat (RegexPlus (RegexUnion (Str2Reg "/") (Str2Reg "::"))) (RegexConcat (RegexUnion (RegexStar (Str2Reg "--")) (RegexStar (Str2Reg "."))) (RegexConcat (RegexStar (RegexPlus (Str2Reg ",,"))) (RegexConcat (RegexUnion (RegexUnion (Str2Reg "))") (Str2Reg "**")) (RegexStar (Str2Reg "+"))) (RegexConcat (RegexStar (RegexUnion (Str2Reg "''") (Str2Reg "("))) (RegexConcat (RegexPlus (RegexStar (Str2Reg "&&&"))) (RegexConcat (RegexUnion (RegexStar (Str2Reg "$")) (RegexPlus (Str2Reg "%%%"))) (RegexConcat (RegexUnion (RegexPlus (Str2Reg "\"\"")) (RegexPlus (Str2Reg "##"))) (RegexConcat (RegexStar (RegexPlus (Str2Reg "!!"))) (RegexConcat (RegexStar (RegexPlus (Str2Reg "ZZZ"))) (RegexConcat (RegexPlus (RegexPlus (Str2Reg "YYY"))) (RegexConcat (RegexPlus (RegexUnion (Str2Reg "W") (Str2Reg "XX"))) (RegexConcat (RegexStar (RegexUnion (Str2Reg "UU") (Str2Reg "VV"))) (RegexConcat (RegexStar (RegexStar (Str2Reg "T"))) (RegexConcat (RegexPlus (RegexUnion (Str2Reg "R") (Str2Reg "SS"))) (RegexConcat (RegexPlus (RegexUnion (Str2Reg "PPP") (Str2Reg "QQQ"))) (RegexConcat (RegexPlus (RegexStar (Str2Reg "OO"))) (RegexConcat (RegexUnion (RegexPlus (Str2Reg "MM")) (RegexPlus (Str2Reg "N"))) (RegexConcat (RegexUnion (RegexPlus (Str2Reg "JJJ")) (RegexUnion (Str2Reg "K") (Str2Reg "L"))) (RegexConcat (RegexUnion (RegexStar (Str2Reg "H")) (RegexPlus (Str2Reg "I"))) (RegexConcat (RegexUnion (RegexPlus (Str2Reg "FFF")) (RegexPlus (Str2Reg "G"))) (RegexConcat (RegexPlus (RegexUnion (Str2Reg "D") (Str2Reg "EEE"))) (RegexConcat (RegexPlus (RegexStar (Str2Reg "C"))) (RegexConcat (RegexUnion (RegexStar (Str2Reg "AA")) (RegexPlus (Str2Reg "B"))) (RegexConcat (RegexUnion (RegexPlus (Str2Reg "x")) (RegexUnion (Str2Reg "y") (Str2Reg "zzz"))) (RegexConcat (RegexUnion (RegexPlus (Str2Reg "vv")) (RegexPlus (Str2Reg "ww"))) (RegexConcat (RegexStar (RegexStar (Str2Reg "u"))) (RegexConcat (RegexStar (RegexPlus (Str2Reg "tt"))) (RegexConcat (RegexUnion (RegexStar (Str2Reg "qqq")) (RegexUnion (Str2Reg "r") (Str2Reg "ss"))) (RegexConcat (RegexStar (RegexPlus (Str2Reg "pp"))) (RegexConcat (RegexUnion (RegexPlus (Str2Reg "nnn")) (RegexPlus (Str2Reg "ooo"))) (RegexConcat (RegexUnion (RegexPlus (Str2Reg "lll")) (RegexStar (Str2Reg "mm"))) (RegexConcat (RegexStar (RegexPlus (Str2Reg "k"))) (RegexConcat (RegexPlus (RegexStar (Str2Reg "j"))) (RegexConcat (RegexPlus (RegexUnion (Str2Reg "hhh") (Str2Reg "i"))) (RegexConcat (RegexPlus (RegexPlus (Str2Reg "g"))) (RegexConcat (RegexUnion (RegexStar (Str2Reg "dd")) (RegexUnion (Str2Reg "eee") (Str2Reg "f"))) (RegexConcat (RegexUnion (RegexStar (Str2Reg "bbb")) (RegexStar (Str2Reg "c"))) (RegexConcat (RegexPlus (RegexUnion (Str2Reg "9") (Str2Reg "aa"))) (RegexConcat (RegexStar (RegexPlus (Str2Reg "88"))) (RegexConcat (RegexPlus (RegexPlus (Str2Reg "7"))) (RegexConcat (RegexStar (RegexUnion (Str2Reg "5") (Str2Reg "666"))) (RegexConcat (RegexPlus (RegexUnion (Str2Reg "33") (Str2Reg "44"))) (RegexUnion (RegexStar (Str2Reg "000")) (RegexUnion (Str2Reg "111") (Str2Reg "222")))))))))))))))))))))))))))))))))))))))))))))))))))))))))))))))))))))))))))))))))))))))))))))))))))))
(check-sat)